NAME : 10_3_3_2_(48).dat
COMMENT : Henke, Speranza, Wäscher, 2015
TYPE : MCVRP
DIMENSION : 11
EDGE_WEIGHT_TYPE : DISTANCE_MATRIX
CAPACITY : 1000
VEHICLES : 3
PRODUCT TYPES : 3
COMPARTMENTS : 3
NODE_COORD_SECTION
1 50 50
2 77.83 10.01
3 89.02 13.37
4 5.11 47.96
5 80.86 59.23
6 72.42 74.83
7 4.7 89.27
8 92.91 61.92
9 1.51 58.26
10 6.86 38.25
11 98.26 34.59
DEMAND_SECTION
1 0 0 0
2 0 82 19
3 370 0 1
4 4 0 42
5 0 69 44
6 0 80 87
7 17 0 48
8 81 88 0
9 315 0 68
10 68 75 0
11 0 119 32
DEPOT_SECTION
1
EOF